c generated by generate.py on 2024-12-26 03:07:54
c negative instance
p edge 200 564
e 1 83
e 1 120
e 1 190
e 2 7
e 2 49
e 2 95
e 2 178
e 3 56
e 3 97
e 3 101
e 4 15
e 4 49
e 4 75
e 4 110
e 4 198
e 5 18
e 5 22
e 5 83
e 5 95
e 5 110
e 5 141
e 5 152
e 5 164
e 5 186
e 6 51
e 7 9
e 7 23
e 7 30
e 7 53
e 7 68
e 7 79
e 7 96
e 7 98
e 7 106
e 7 151
e 8 28
e 8 188
e 9 15
e 9 50
e 9 59
e 9 68
e 9 117
e 9 123
e 9 152
e 10 36
e 10 53
e 10 54
e 10 64
e 10 99
e 10 145
e 10 194
e 11 40
e 11 45
e 11 51
e 11 64
e 11 125
e 12 54
e 12 72
e 12 94
e 12 148
e 12 161
e 12 177
e 13 44
e 13 49
e 13 92
e 13 93
e 13 113
e 13 122
e 13 123
e 14 53
e 14 111
e 14 183
e 15 40
e 15 50
e 15 79
e 15 151
e 15 191
e 16 32
e 16 51
e 16 61
e 16 63
e 16 156
e 16 184
e 16 189
e 17 18
e 18 28
e 18 30
e 18 74
e 19 46
e 19 67
e 19 154
e 19 155
e 19 200
e 20 32
e 20 110
e 20 173
e 21 42
e 21 65
e 21 166
e 21 188
e 22 47
e 22 84
e 22 135
e 22 198
e 23 29
e 23 32
e 23 85
e 23 96
e 24 69
e 24 79
e 24 114
e 24 115
e 24 139
e 24 164
e 24 186
e 24 188
e 24 192
e 24 198
e 25 36
e 25 47
e 25 55
e 25 180
e 25 187
e 26 107
e 26 158
e 26 191
e 27 52
e 27 60
e 27 169
e 27 182
e 27 196
e 28 39
e 28 58
e 28 141
e 29 76
e 29 81
e 29 109
e 29 167
e 29 184
e 29 187
e 29 195
e 30 45
e 30 75
e 30 189
e 31 35
e 31 60
e 31 90
e 31 100
e 31 188
e 32 63
e 32 84
e 32 93
e 33 75
e 33 131
e 33 140
e 33 187
e 33 195
e 34 65
e 34 70
e 34 127
e 34 135
e 34 139
e 34 168
e 35 66
e 35 88
e 35 90
e 35 100
e 35 146
e 35 174
e 35 190
e 36 51
e 36 67
e 36 68
e 36 69
e 36 80
e 36 111
e 36 172
e 37 52
e 37 73
e 37 134
e 37 139
e 37 156
e 38 87
e 38 106
e 38 123
e 38 135
e 38 145
e 38 176
e 38 181
e 38 187
e 38 199
e 39 41
e 39 54
e 39 175
e 39 177
e 39 178
e 39 192
e 40 46
e 40 72
e 40 109
e 40 150
e 40 157
e 41 100
e 42 69
e 42 100
e 42 103
e 42 112
e 42 114
e 42 163
e 42 168
e 42 189
e 43 59
e 43 173
e 44 48
e 44 146
e 44 151
e 44 157
e 44 166
e 45 67
e 45 73
e 45 197
e 46 60
e 46 84
e 46 181
e 47 64
e 47 78
e 47 130
e 47 180
e 48 82
e 48 122
e 48 132
e 48 139
e 48 167
e 48 185
e 48 199
e 49 56
e 49 75
e 49 81
e 49 116
e 49 118
e 49 156
e 50 99
e 50 105
e 50 125
e 50 198
e 51 66
e 51 141
e 51 196
e 52 62
e 52 159
e 52 179
e 53 67
e 53 94
e 53 101
e 53 126
e 53 132
e 53 150
e 53 175
e 53 187
e 54 79
e 54 88
e 54 194
e 55 180
e 55 185
e 56 90
e 56 92
e 56 172
e 56 177
e 57 123
e 57 149
e 57 153
e 58 82
e 58 103
e 58 106
e 58 109
e 58 153
e 58 176
e 59 70
e 59 149
e 59 172
e 59 197
e 60 147
e 61 73
e 61 114
e 61 118
e 61 195
e 62 103
e 62 114
e 62 146
e 62 155
e 62 166
e 62 170
e 62 190
e 62 198
e 63 70
e 63 77
e 63 135
e 64 66
e 64 85
e 64 106
e 64 144
e 66 109
e 66 181
e 66 187
e 67 87
e 67 111
e 67 128
e 67 149
e 67 168
e 67 176
e 67 180
e 68 69
e 68 104
e 68 115
e 68 121
e 68 130
e 68 135
e 68 172
e 68 181
e 69 149
e 70 92
e 70 109
e 70 171
e 71 74
e 71 80
e 71 97
e 71 114
e 71 137
e 71 145
e 71 159
e 71 166
e 72 74
e 72 104
e 72 129
e 72 143
e 72 179
e 73 84
e 73 86
e 73 117
e 73 141
e 73 151
e 73 152
e 75 85
e 75 162
e 75 176
e 76 110
e 76 129
e 77 79
e 77 84
e 77 129
e 77 146
e 77 186
e 78 122
e 79 91
e 79 101
e 79 156
e 79 175
e 80 82
e 80 89
e 81 105
e 81 108
e 81 117
e 82 120
e 82 169
e 83 198
e 84 161
e 84 188
e 85 105
e 85 139
e 86 96
e 86 147
e 87 131
e 88 90
e 88 103
e 88 129
e 88 143
e 88 149
e 88 150
e 89 91
e 89 102
e 89 140
e 90 108
e 90 128
e 90 136
e 90 141
e 91 137
e 91 189
e 92 198
e 93 125
e 93 155
e 93 188
e 93 200
e 94 106
e 94 125
e 94 141
e 94 143
e 94 179
e 96 173
e 97 100
e 97 143
e 97 145
e 98 122
e 98 180
e 99 135
e 99 147
e 99 176
e 100 109
e 100 122
e 100 170
e 101 110
e 101 198
e 102 115
e 103 121
e 103 167
e 103 172
e 103 179
e 104 155
e 104 166
e 105 187
e 106 111
e 106 132
e 106 155
e 107 112
e 107 122
e 107 127
e 107 150
e 107 173
e 108 146
e 108 197
e 109 111
e 109 126
e 109 164
e 109 175
e 110 148
e 113 132
e 113 135
e 113 189
e 114 124
e 114 143
e 114 155
e 114 158
e 114 164
e 114 189
e 114 193
e 115 122
e 115 124
e 115 158
e 115 177
e 115 185
e 116 142
e 118 123
e 118 144
e 118 158
e 118 166
e 118 175
e 119 155
e 119 182
e 119 190
e 120 124
e 120 129
e 120 156
e 120 192
e 120 194
e 121 135
e 121 137
e 121 190
e 121 193
e 122 137
e 122 166
e 122 176
e 123 127
e 123 173
e 123 189
e 123 200
e 124 133
e 124 177
e 124 194
e 125 167
e 125 170
e 125 173
e 125 187
e 125 189
e 126 137
e 126 145
e 126 170
e 127 181
e 127 189
e 128 130
e 128 138
e 128 150
e 128 170
e 128 183
e 128 194
e 128 197
e 129 133
e 129 199
e 130 152
e 130 162
e 130 175
e 131 134
e 131 176
e 132 148
e 132 167
e 133 156
e 134 143
e 134 173
e 134 199
e 135 174
e 135 183
e 136 171
e 136 179
e 137 138
e 137 155
e 139 153
e 139 166
e 139 173
e 139 195
e 140 173
e 141 154
e 142 170
e 142 185
e 142 188
e 143 171
e 143 177
e 145 169
e 145 188
e 147 169
e 147 176
e 147 194
e 148 191
e 149 200
e 150 168
e 150 175
e 151 198
e 152 159
e 152 176
e 153 161
e 153 162
e 155 175
e 155 186
e 156 170
e 156 171
e 156 183
e 157 187
e 161 169
e 164 177
e 166 170
e 166 181
e 166 192
e 167 197
e 169 188
e 169 189
e 173 186
e 175 186
e 175 194
e 176 187
e 177 178
e 178 187
e 178 192
e 179 182
e 181 193
e 187 188
e 187 198
e 188 190
